62 5 98 25 13 63 45 83 41 27 65 71 58 47 35 20 17 32 72 40 52 67 60 90 44 78 56 23 6 86 10 88 43 16 95 39 89 55 42 64 97 54 11 49 81 9 34 51 50 48 22 26 96 68 7 61 70 12 74 0 91 21 53 46 59 14 19 4 73 30 28 57 93 2 66 36 92 24 37 31 79 75 85 94 69 29 8 3 33 38 82 87 76 1 99 77 84 18 15 80